minizinc/perfect_square_placement_problems/3.dzn
% Data for perfect square placement problem:
% http://www.hakank.org/minizinc/perfect_square_placement.mzn
% Data is originally from CSPLib:
% http://www.cs.st-andrews.ac.uk/~ianm/CSPLib/prob/prob009/results

% problem 3 
n = 110;
size = 22;
a = [1,2,3,4,6,8,9,12,14,16,17,18,19,21,22,23,24,26,27,28,50,60];

